This is Ipopt version 3.10.1, running with linear solver mumps.

Number of nonzeros in equality constraint Jacobian...:      177
Number of nonzeros in inequality constraint Jacobian.:        0
Number of nonzeros in Lagrangian Hessian.............:     3324

Total number of variables............................:       90
                     variables with only lower bounds:        0
                variables with lower and upper bounds:       90
                     variables with only upper bounds:        0
Total number of equality constraints.................:       59
Total number of inequality constraints...............:        0
        inequality constraints with only lower bounds:        0
   inequality constraints with lower and upper bounds:        0
        inequality constraints with only upper bounds:        0

iter    objective    inf_pr   inf_du lg(mu)  ||d||  lg(rg) alpha_du alpha_pr  ls
   0 -4.3210251e-04 1.00e-02 2.86e-04  -1.0 0.00e+00    -  0.00e+00 0.00e+00   0
   1 -4.3210614e-04 2.22e-16 5.04e-04  -1.7 1.84e-02    -  9.96e-01 1.00e+00h  1
   2 -4.0946556e-04 1.89e-10 3.12e-03  -2.5 3.29e-02    -  9.77e-01 1.00e+00f  1
   3 -4.2606483e-04 2.22e-16 9.57e-05  -3.8 4.91e-02    -  9.88e-01 1.00e+00f  1
   4 -4.3418605e-03 6.30e-13 5.90e-03  -5.7 4.88e-01    -  3.20e-01 5.72e-01f  1
   5 -4.3394006e-03 6.30e-13 6.06e-03  -5.7 2.53e-01  -2.0 3.87e-02 2.44e-04f 13
   6 -4.3300098e-03 6.30e-13 6.38e-03  -5.7 2.03e+01  -1.6 2.32e-03 1.92e-05f 12
   7 -4.9680324e-03 4.62e-13 5.38e-03  -5.7 4.62e-02  -1.1 9.51e-01 2.67e-01f  1
   8 -5.8464943e-03 8.80e-13 4.00e-02  -5.7 3.93e+00  -1.6 1.56e-01 4.15e-03f  1
   9 -8.8692390e-03 3.65e-12 3.80e-03  -5.7 5.86e-02  -1.2 1.00e+00 1.00e+00f  1
iter    objective    inf_pr   inf_du lg(mu)  ||d||  lg(rg) alpha_du alpha_pr  ls
  10 -1.0060106e-02 2.46e-12 4.10e-03  -5.7 2.85e-02  -0.8 1.00e+00 5.77e-01f  1
  11 -1.2030557e-02 3.13e-12 1.46e-02  -5.7 1.80e-01  -1.3 1.00e+00 1.45e-01f  1
  12 -1.3163054e-02 2.06e-12 6.03e-03  -5.7 4.38e-02  -0.8 1.00e+00 3.40e-01f  1
  13 -1.5618581e-02 1.88e-12 3.11e-02  -5.7 3.32e-01  -1.3 1.00e+00 8.95e-02f  1
  14 -1.7022936e-02 2.22e-12 1.07e-02  -5.7 6.44e-02  -0.9 1.00e+00 2.35e-01f  1
  15 -1.9304849e-02 3.27e-12 6.62e-02  -5.7 7.42e-01  -1.4 6.69e-01 4.02e-02f  1
  16 -2.1019106e-02 4.02e-12 1.61e-02  -5.7 7.54e-02  -0.9 1.00e+00 3.51e-01f  1
  17 -2.9015129e-02 3.77e-12 4.51e-02  -5.7 1.58e+00  -1.4 2.60e-01 6.29e-02f  1
  18 -3.2180334e-02 3.21e-12 3.79e-02  -5.7 1.81e-01  -1.0 1.00e+00 1.49e-01f  1
  19 -3.2633478e-02 3.33e-12 2.08e-02  -5.7 4.02e-02  -0.6 1.00e+00 9.23e-02f  1
iter    objective    inf_pr   inf_du lg(mu)  ||d||  lg(rg) alpha_du alpha_pr  ls
  20 -3.4659364e-02 3.00e-12 3.37e-02  -5.7 1.43e-01  -1.0 1.00e+00 1.01e-01f  1
  21 -3.9893187e-02 4.29e-12 9.74e-03  -5.7 3.72e-02  -0.6 1.00e+00 1.00e+00f  1
  22 -4.9664772e-02 3.28e-12 3.27e-02  -5.7 2.32e-01  -1.1 8.55e-01 2.35e-01f  1
  23 -5.2168599e-02 2.55e-12 4.60e-02  -5.7 6.01e-02  -0.7 1.00e+00 2.23e-01f  1
  24 -5.5381397e-02 2.54e-12 6.08e-02  -5.7 3.60e+00  -1.1 3.52e-02 4.84e-03f  1
  25 -7.7209170e-02 1.39e-11 2.33e-02  -5.7 7.81e-02  -0.7 1.00e+00 1.00e+00f  1
  26 -8.2002089e-02 1.13e-11 2.18e-02  -5.7 3.78e-02  -0.3 1.00e+00 3.56e-01f  1
  27 -9.2649566e-02 1.32e-11 2.62e-02  -5.7 2.79e-01  -0.8 1.17e-01 1.15e-01f  1
  28 -9.3401308e-02 1.32e-11 2.63e-02  -5.7 2.21e+00  -1.2 1.83e-02 3.42e-03f  1
  29 -9.8107232e-02 1.28e-11 5.08e-02  -5.7 5.74e-01  -0.8 1.31e-01 2.93e-02f  1
iter    objective    inf_pr   inf_du lg(mu)  ||d||  lg(rg) alpha_du alpha_pr  ls
  30 -9.9189121e-02 1.28e-11 6.07e-02  -5.7 2.49e+00  -1.3 1.41e-02 2.97e-03f  1
  31 -1.0927722e-01 1.24e-11 1.17e-01  -5.7 1.31e+00  -0.9 1.69e-01 2.82e-02f  1
  32 -1.1913205e-01 6.83e-12 7.02e-02  -5.7 8.48e-02  -0.4 1.00e+00 4.49e-01f  1
  33 -1.2618007e-01 6.74e-12 2.15e-01  -5.7 2.03e+00  -0.9 1.66e-01 1.39e-02f  1
  34 -1.3387616e-01 1.11e-11 1.42e-01  -5.7 1.17e-01  -0.5 3.77e-01 2.74e-01f  1
  35 -1.3545716e-01 9.41e-12 5.37e-02  -5.7 3.99e-02  -0.1 7.30e-01 1.55e-01f  1
  36 -1.5985689e-01 1.94e-11 3.71e-02  -5.7 1.55e-01  -0.5 7.72e-01 6.23e-01f  1
  37 -1.3055728e-01 6.95e-12 2.17e-01  -5.7 7.09e-01  -1.0 4.76e-02 6.41e-01h  1
  38 -1.3054611e-01 6.96e-12 2.21e-01  -5.7 2.39e-01  -0.6 2.24e-01 1.00e-03f  9
  39 -1.3372878e-01 6.55e-12 2.03e-01  -5.7 2.05e-01  -1.1 1.72e-01 5.90e-02f  1
iter    objective    inf_pr   inf_du lg(mu)  ||d||  lg(rg) alpha_du alpha_pr  ls
  40 -1.4627949e-01 6.09e-12 1.94e-01  -5.7 1.49e+00    -  6.67e-04 6.95e-02f  1
  41 -1.4646057e-01 6.09e-12 1.92e-01  -5.7 5.01e+01  -1.5 1.60e-04 3.01e-05f  1
  42 -1.4943520e-01 5.87e-12 1.72e-01  -5.7 3.10e-01  -1.1 8.48e-02 3.71e-02f  1
  43 -1.6449424e-01 2.61e-12 1.50e-01  -5.7 7.27e-02  -0.7 1.86e-01 5.56e-01f  1
  44 -1.7782243e-01 2.44e-11 8.83e-02  -5.7 5.21e-02  -0.3 6.79e-01 5.00e-01f  1
  45 -2.0098328e-01 3.11e-11 9.30e-02  -5.7 1.29e+01  -0.7 3.91e-03 2.58e-03f  1
  46 -2.0097854e-01 3.11e-11 9.30e-02  -5.7 2.45e-01  -1.2 2.44e-03 3.30e-05f 15
  47 -2.0096735e-01 3.11e-11 9.30e-02  -5.7 9.76e-01  -1.7 2.43e-04 9.12e-05f  9
  48 -1.4357634e-01 8.06e-13 1.15e-01  -5.7 1.98e-01    -  7.01e-02 9.74e-01h  1
  49 -1.4389851e-01 8.05e-13 1.17e-01  -5.7 1.78e+00  -2.2 3.81e-06 1.80e-03f  1
iter    objective    inf_pr   inf_du lg(mu)  ||d||  lg(rg) alpha_du alpha_pr  ls
  50 -1.4388279e-01 8.05e-13 1.16e-01  -5.7 2.89e+01    -  1.35e-05 6.57e-06f  5
  51 -1.4322451e-01 7.73e-13 1.07e-01  -5.7 1.05e-01  -2.6 9.44e-01 3.90e-02h  1
  52 -1.4321379e-01 7.73e-13 1.06e-01  -5.7 1.24e-01    -  1.94e-02 7.55e-04f  4
  53 -1.4309970e-01 7.67e-13 1.03e-01  -5.7 1.03e-01    -  4.13e-02 7.64e-03h  1
  54 -1.4309341e-01 7.67e-13 1.02e-01  -5.7 1.26e-01  -3.1 7.49e-02 3.68e-04f  7
  55 -1.3858220e-01 5.41e-13 7.39e-02  -5.7 1.34e-01  -3.6 4.02e-02 2.94e-01h  1
  56 -1.3857430e-01 5.40e-13 7.30e-02  -5.7 1.00e-01    -  4.55e-02 1.01e-03f  9
  57 -1.3767589e-01 5.09e-13 6.98e-02  -5.7 3.12e-01  -1.4 7.51e-03 5.87e-02h  1
  58 -1.3989744e-01 3.00e-13 5.72e-02  -5.7 7.52e-02  -0.9 8.74e-02 4.10e-01f  1
  59 -1.3989176e-01 3.00e-13 5.68e-02  -5.7 1.92e-01  -0.5 6.23e-03 1.35e-03f  2
iter    objective    inf_pr   inf_du lg(mu)  ||d||  lg(rg) alpha_du alpha_pr  ls
  60 -1.3981598e-01 2.98e-13 5.70e-02  -5.7 9.91e-02    -  4.49e-02 7.22e-03h  1
  61 -1.3980396e-01 2.97e-13 5.65e-02  -5.7 8.89e-02    -  3.52e-02 1.29e-03f  2
  62 -1.3575743e-01 2.22e-15 3.42e-02  -5.7 1.18e-01    -  8.62e-03 1.00e+00h  1
  63 -1.3590472e-01 4.43e-13 3.23e-02  -5.7 1.46e+00  -1.0 4.62e-02 2.14e-03f  1
  64 -1.3672503e-01 4.44e-16 5.20e-03  -5.7 1.91e-02  -0.6 1.00e+00 1.00e+00f  1
  65 -1.3683223e-01 2.50e-13 3.80e-02  -5.7 3.52e-01  -1.0 2.48e-01 5.93e-03f  6
  66 -1.3959290e-01 1.51e-14 2.06e-02  -5.7 9.81e-02  -1.5 7.42e-01 9.33e-01h  1
  67 -1.4066505e-01 2.22e-16 8.90e-03  -5.7 1.39e-02  -0.2 1.00e+00 1.00e+00F  1
  68 -1.4935386e-01 2.22e-16 4.65e-02  -5.7 4.92e-02  -0.7 2.11e-01 1.00e+00f  1
  69 -1.5981414e-01 2.22e-16 2.17e-02  -5.7 3.40e-02  -0.2 5.87e-01 1.00e+00f  1
iter    objective    inf_pr   inf_du lg(mu)  ||d||  lg(rg) alpha_du alpha_pr  ls
  70 -1.5975266e-01 2.22e-16 2.22e-02  -5.7 1.58e+00  -0.7 7.08e-03 1.17e-04h 10
  71 -1.6396335e-01 2.22e-16 2.81e-02  -5.7 6.70e-02  -0.3 1.00e+00 1.66e-01f  1
  72 -1.6989465e-01 2.22e-16 6.80e-02  -5.7 1.27e+00  -0.8 6.70e-02 1.35e-02f  1
  73 -1.6989120e-01 2.22e-16 5.82e-02  -5.7 1.52e-01    -  6.82e-02 6.10e-05f 15
  74 -1.6988477e-01 2.22e-16 1.01e-01  -5.7 5.02e+00  -0.3 1.12e-02 1.16e-05f 12
  75 -1.6999324e-01 1.92e-13 9.42e-02  -5.7 2.06e-02   0.1 1.00e+00 1.29e-02f  1
  76 -2.0795395e-01 2.12e-11 4.22e-02  -5.7 7.73e-02  -0.4 1.00e+00 1.00e+00f  1
  77 -2.2830189e-01 4.07e-12 4.22e-02  -5.7 3.72e-02   0.0 1.00e+00 8.08e-01f  1
  78 -3.5704073e-01 4.02e-11 1.15e-01  -5.7 2.79e-01  -0.5 9.61e-01 4.28e-01f  1
  79 -4.0925437e-01 3.82e-11 1.70e+00  -5.7 1.69e+00  -0.9 5.69e-01 4.91e-02f  1
iter    objective    inf_pr   inf_du lg(mu)  ||d||  lg(rg) alpha_du alpha_pr  ls
  80 -5.1361470e-01 2.28e-11 6.69e-01  -5.7 3.53e-01  -0.5 1.00e+00 4.03e-01f  1
  81 -5.1440986e-01 1.83e-12 4.93e-02  -5.7 6.21e-02    -  9.98e-01 9.20e-01f  1
  82 -5.2508531e-01 6.35e-11 5.40e-02  -5.7 5.41e-02    -  1.00e+00 8.19e-01f  1
  83 -5.2766599e-01 6.88e-11 7.31e-03  -5.7 4.71e-02    -  1.00e+00 9.76e-01f  1
  84 -5.2845612e-01 1.03e-10 2.56e-01  -5.7 2.19e-01    -  2.69e-01 1.87e-01f  1
  85 -5.2882732e-01 5.16e-11 6.80e-03  -5.7 1.37e-02  -1.0 9.47e-01 1.00e+00f  1
  86 -5.2752943e-01 1.59e-14 5.64e-03  -5.7 6.23e-02    -  1.00e+00 1.00e+00h  1
  87 -5.3064040e-01 1.96e-11 1.66e-02  -5.7 1.05e-01    -  1.00e+00 1.00e+00f  1
  88 -3.9896863e-01 5.87e-12 3.62e-01  -5.7 5.71e-01  -1.5 5.90e-01 7.00e-01h  1
  89 -4.9570361e-01 1.47e-11 7.09e-02  -5.7 1.02e-01    -  1.00e+00 1.00e+00F  1
iter    objective    inf_pr   inf_du lg(mu)  ||d||  lg(rg) alpha_du alpha_pr  ls
  90 -5.2010096e-01 1.22e-12 2.61e-02  -5.7 7.94e-02    -  1.00e+00 1.00e+00F  1
  91 -5.2587096e-01 1.64e-11 9.92e-03  -5.7 5.94e-02    -  1.00e+00 1.00e+00f  1
  92 -5.2739658e-01 4.44e-16 4.70e-03  -5.7 4.70e-02    -  1.00e+00 1.00e+00f  1
  93 -5.2899500e-01 1.32e-11 9.03e-03  -5.7 7.45e-02    -  1.00e+00 1.00e+00f  1
  94 -5.2994022e-01 7.17e-12 3.08e-03  -5.7 2.40e-02  -1.0 1.00e+00 1.00e+00f  1
  95 -5.2797224e-01 1.27e-14 6.44e-03  -5.7 6.69e-02    -  1.00e+00 1.00e+00h  1
  96 -5.1761115e-01 6.66e-16 4.70e-02  -5.7 1.52e-01    -  1.00e+00 1.00e+00h  1
  97 -5.1761268e-01 1.55e-15 5.97e-02  -5.7 6.29e-02    -  1.00e+00 1.22e-04f 14
  98 -5.1761307e-01 1.89e-15 6.21e-02  -5.7 6.29e-02    -  1.00e+00 3.05e-05f 16
  99 -5.2527964e-01 2.22e-16 1.19e-02  -5.7 6.29e-02    -  1.00e+00 1.00e+00f  1
iter    objective    inf_pr   inf_du lg(mu)  ||d||  lg(rg) alpha_du alpha_pr  ls
 100 -5.2528002e-01 1.33e-15 3.04e-02  -5.7 4.83e-02    -  1.00e+00 1.22e-04f 14
 101 -5.2720027e-01 2.22e-16 5.22e-03  -5.7 4.83e-02    -  1.00e+00 1.00e+00f  1
 102 -5.2831087e-01 2.22e-16 5.81e-03  -5.7 5.77e-02    -  1.00e+00 1.00e+00f  1
 103 -5.3083961e-01 2.22e-16 8.42e-03  -5.7 6.66e-02  -1.5 1.00e+00 1.00e+00f  1
Restoration phase is called at point that is almost feasible,
  with constraint violation 9.992007e-16. Abort.

Number of Iterations....: 103

                                   (scaled)                 (unscaled)
Objective...............:  -5.3083960578951217e-01   -5.3083960578951217e-01
Dual infeasibility......:   8.4216557532811979e-03    8.4216557532811979e-03
Constraint violation....:   2.2204460492503131e-16    2.2204460492503131e-16
Complementarity.........:   1.8449144625279496e-06    1.8449144625279496e-06
Overall NLP error.......:   8.4216557532811979e-03    8.4216557532811979e-03


Number of objective function evaluations             = 301
Number of objective gradient evaluations             = 105
Number of equality constraint evaluations            = 301
Number of inequality constraint evaluations          = 0
Number of equality constraint Jacobian evaluations   = 1
Number of inequality constraint Jacobian evaluations = 0
Number of Lagrangian Hessian evaluations             = 104
Total CPU secs in IPOPT (w/o function evaluations)   =      0.300
Total CPU secs in NLP function evaluations           =      3.680

EXIT: Restoration Failed!
